;; sequence(s): A52558
;; terms: 1 1 4 12 72 360 2880 20160 201600 1814400 21772800 239500800 3353011200 43589145600 697426329600 10461394944000 188305108992000 3201186852864000 64023737057280000 1216451004088320000
;; small program: loop(x * y, x, 1 + (x div 2))
;; fast program: (((x div 2) * x) + (if x <= 0 then 1 else x)) * loop(x * y, x - 1, 1)
(set-logic UFNIA)
(define-fun divf ((a Int) (b Int)) Int (ite (< 0 b) (div a b) (div (- a) (- b))))
(declare-fun f0 (Int Int) Int)
(declare-fun g0 (Int) Int)
(declare-fun h0 (Int) Int)
(declare-fun u0 (Int Int) Int)
(declare-fun v0 (Int) Int)
(declare-fun small (Int) Int)
(declare-fun f1 (Int Int) Int)
(declare-fun g1 (Int) Int)
(declare-fun h1 () Int)
(declare-fun u1 (Int Int) Int)
(declare-fun v1 (Int) Int)
(declare-fun fast (Int) Int)
(assert (forall ((x Int) (y Int)) (= (f0 x y) (* x y))))
(assert (forall ((x Int)) (= (g0 x) x)))
(assert (forall ((x Int)) (= (h0 x) (+ 1 (divf x 2)))))
(assert (forall ((x Int) (y Int)) (= (u0 x y) (ite (<= x 0) y (f0 (u0 (- x 1) y) x)))))
(assert (forall ((x Int)) (= (v0 x) (u0 (g0 x) (h0 x)))))
(assert (forall ((x Int)) (= (small x) (v0 x))))
(assert (forall ((x Int) (y Int)) (= (f1 x y) (* x y))))
(assert (forall ((x Int)) (= (g1 x) (- x 1))))
(assert (= h1 1))
(assert (forall ((x Int) (y Int)) (= (u1 x y) (ite (<= x 0) y (f1 (u1 (- x 1) y) x)))))
(assert (forall ((x Int)) (= (v1 x) (u1 (g1 x) h1))))
(assert (forall ((x Int)) (= (fast x) (* (+ (* (divf x 2) x) (ite (<= x 0) 1 x)) (v1 x)))))
(assert (exists ((c Int)) (and (>= c 0) (not (= (small c) (fast c))))))
(check-sat)
